# Solution for model r5_t9_m0_9
# Finished Task: 9 / 9
# Makespan: 444.0, Total Distance: 541.0, Total Time: 0.0152
# R O S F
0 0 12 0.0 0.0
1 1 9 0.0 0.0
2 2 11 0.0 0.0
3 3 10 0.0 0.0
4 4 13 0.0 0.0
5 0 -1 384.0 415.0
6 2 -1 339.0 378.0
7 1 -1 394.0 421.0
8 4 -1 409.0 444.0
9 1 7 310.0 330.0
10 3 -1 421.0 442.0
11 2 6 198.0 235.0
12 0 5 275.0 310.0
13 4 8 378.0 409.0
